
Gurobi 10.0.1 (linux64) logging started Sun Nov 26 15:37:56 2023

Set parameter LogFile to value "ArtificialInstance/ExperimentV2/S4T4K3/AdRo/gurobi1.txt"
Gurobi Optimizer version 10.0.1 build v10.0.1rc0 (linux64)

CPU model: AMD EPYC 7H12 64-Core Processor, instruction set [SSE2|AVX|AVX2]
Thread count: 128 physical cores, 128 logical processors, using up to 32 threads

Academic license 656792 - for non-commercial use only - registered to b.___@student.vu.nl
Optimize a model with 21624 rows, 20431 columns and 79410 nonzeros
Model fingerprint: 0xd5d60964
Variable types: 1 continuous, 20430 integer (20430 binary)
Coefficient statistics:
  Matrix range     [1e+00, 4e+01]
  Objective range  [1e+00, 2e+01]
  Bounds range     [1e+00, 1e+00]
  RHS range        [1e+00, 1e+00]
Presolve removed 6900 rows and 6915 columns
Presolve time: 0.46s
Presolved: 14724 rows, 13516 columns, 53528 nonzeros
Variable types: 1 continuous, 13515 integer (13515 binary)

Root relaxation: objective 8.083464e+01, 10536 iterations, 1.46 seconds (1.29 work units)

    Nodes    |    Current Node    |     Objective Bounds      |     Work
 Expl Unexpl |  Obj  Depth IntInf | Incumbent    BestBd   Gap | It/Node Time

     0     0   80.83464    0  864          -   80.83464      -     -    2s
H    0     0                     131.6374840   80.83464  38.6%     -    2s
H    0     0                     121.5454698   80.83464  33.5%     -    2s
H    0     0                     105.3644628   80.83464  23.3%     -    2s
H    0     0                      84.7585957   80.83464  4.63%     -    2s
     0     0   81.62877    0  784   84.75860   81.62877  3.69%     -    3s
     0     0   82.62589    0  862   84.75860   82.62589  2.52%     -    4s
     0     0   84.18901    0  780   84.75860   84.18901  0.67%     -    4s
     0     0   84.28273    0   28   84.75860   84.28273  0.56%     -    4s
     0     0   84.31090    0  218   84.75860   84.31090  0.53%     -    4s
     0     0   84.71459    0    4   84.75860   84.71459  0.05%     -    4s
     0     0   84.71459    0   44   84.75860   84.71459  0.05%     -    4s
     0     0   84.71459    0    1   84.75860   84.71459  0.05%     -    4s
     0     0   84.75860    0    1   84.75860   84.75860  0.00%     -    4s

Cutting planes:
  Gomory: 1
  Cover: 1
  Clique: 3
  MIR: 1
  GUB cover: 1
  RLT: 1

Explored 1 nodes (33550 simplex iterations) in 4.93 seconds (3.45 work units)
Thread count was 32 (of 128 available processors)

Solution count 4: 84.7586 105.364 121.545 131.637 

Optimal solution found (tolerance 1.00e-04)
Best objective 8.475859571156e+01, best bound 8.475859571156e+01, gap 0.0000%
